(set-logic QF_S)
(declare-fun var0 () Int)
(declare-fun var1 () String)
(declare-fun var2 () String)
(declare-fun var3 () String)
(declare-fun var4 () Int)
(declare-fun var5 () Int)
(assert (<= 128 var0))
(assert (str.in.re var1 re.allchar))
(assert (<= (str.len var2) (str.to.int var3)))
(assert (str.in.re (str.substr "S3r!FN/-m|" var4 var5) (re.+ re.allchar)))
(check-sat)